peakDumbCharging = 22200; 
Machine = anon_enum(16); 
machineSpeed = [3700,3700,3700,3700,3700,3700,3700,3700,3700,3700,3700,3700,3700,3700,3700,3700]; 
machineLoad = [3700,3700,3700,3700,3700,3700,3700,3700,3700,3700,3700,3700,3700,3700,3700,3700]; 
Car = anon_enum(25); 
demandCar = [2440,13320,3240,5640,16880,8240,13960,20800,1520,8560,6000,9320,8960,6480,5920,7160,5600,12840,12680,4120,12480,10320,33880,6600,19240]; 
arrivalCar = [77,76,75,73,73,72,71,69,68,68,66,65,63,62,62,60,59,59,52,40,39,30,30,27,25]; 
departureCar = [79,81,77,76,81,75,77,76,70,71,68,71,66,67,70,63,66,65,57,42,44,37,57,30,41]; 
